Minimize
	value: tt

Subject to
tt + 1000 s_1_1 > 0.0
tt - t_1_1 - 1000.241578 s_1_1  + 0.241578 s_1_7  > -999.706800
tt + 1000 s_2_1 > 0.0
tt - t_2_1 - 1000.240252 s_2_1  + 0.240252 s_2_7  > -995.972456
tt + 1000 s_1_2 > 0.0
tt - t_1_2 - 1000.241578 s_1_2  + 0.241578 s_1_8  > -999.677778
tt + 1000 s_2_2 > 0.0
tt - t_2_2 - 1000.240252 s_2_2  + 0.240252 s_2_8  > -995.807417
tt + 1000 s_1_3 > 0.0
tt - t_1_3 - 1000.241578 s_1_3  + 0.241578 s_1_8  > -999.546744
tt + 1000 s_2_3 > 0.0
tt - t_2_3 - 1000.240252 s_2_3  + 0.240252 s_2_8  > -994.309304
tt + 1000 s_1_4 > 0.0
tt - t_1_4 - 1000.483156 s_1_4  + 0.241578 s_1_8  + 0.241578 s_1_3  > -999.757203
tt + 1000 s_2_4 > 0.0
tt - t_2_4 - 1000.480505 s_2_4  + 0.240252 s_2_8  + 0.240252 s_2_3  > -996.235436
tt + 1000 s_1_5 > 0.0
tt - t_1_5 - 1000.483156 s_1_5  + 0.241578 s_1_7  + 0.241578 s_1_8  > -999.788319
tt + 1000 s_2_5 > 0.0
tt - t_2_5 - 1000.480505 s_2_5  + 0.240252 s_2_7  + 0.240252 s_2_8  > -996.873352
tt + 1000 s_1_6 > 0.0
tt - t_1_6 - 1001.207889 s_1_6  + 0.241578 s_1_2  + 0.241578 s_1_5  + 0.241578 s_1_4  + 0.241578 s_1_1  + 0.241578 s_1_3  > -999.976600
tt + 1000 s_2_6 > 0.0
tt - t_2_6 - 1001.201261 s_2_6  + 0.240252 s_2_2  + 0.240252 s_2_5  + 0.240252 s_2_4  + 0.240252 s_2_1  + 0.240252 s_2_3  > -998.778556
tt + 1000 s_1_7 > 0.0
tt - t_1_7 - 1000.000000 s_1_7  > -999.384867
tt + 1000 s_2_7 > 0.0
tt - t_2_7 - 1000.000000 s_2_7  > -989.224778
tt + 1000 s_1_8 > 0.0
tt - t_1_8 - 1000.000000 s_1_8  > -999.513622
tt + 1000 s_2_8 > 0.0
tt - t_2_8 - 1000.000000 s_2_8  > -997.255011
s_1_1 + s_2_1 = 1
s_1_2 + s_2_2 = 1
s_1_3 + s_2_3 = 1
s_1_4 + s_2_4 = 1
s_1_5 + s_2_5 = 1
s_1_6 + s_2_6 = 1
s_1_7 + s_2_7 = 1
s_1_8 + s_2_8 = 1
s_1_1 + s_1_2 + 1000 r_1_1_2 >= 2
- s_1_1 - s_1_2 - 1000 r_1_1_2 >= -1001
t_1_1 - t_1_2 - 1000.000000 u_1_1_2 - 0.241578 s_1_2  + 0.241578 s_1_8  + 2000.000000 r_1_1_2 > -999.677778
s_2_1 + s_2_2 + 1000 r_2_1_2 >= 2
- s_2_1 - s_2_2 - 1000 r_2_1_2 >= -1001
t_2_1 - t_2_2 - 1000.000000 u_2_1_2 - 0.240252 s_2_2  + 0.240252 s_2_8  + 2000.000000 r_2_1_2 > -995.807417
s_1_1 + s_1_3 + 1000 r_1_1_3 >= 2
- s_1_1 - s_1_3 - 1000 r_1_1_3 >= -1001
t_1_1 - t_1_3 - 1000.000000 u_1_1_3 - 0.241578 s_1_3  + 0.241578 s_1_8  + 2000.000000 r_1_1_3 > -999.546744
s_2_1 + s_2_3 + 1000 r_2_1_3 >= 2
- s_2_1 - s_2_3 - 1000 r_2_1_3 >= -1001
t_2_1 - t_2_3 - 1000.000000 u_2_1_3 - 0.240252 s_2_3  + 0.240252 s_2_8  + 2000.000000 r_2_1_3 > -994.309304
s_1_1 + s_1_4 + 1000 r_1_1_4 >= 2
- s_1_1 - s_1_4 - 1000 r_1_1_4 >= -1001
t_1_1 - t_1_4 - 1000.000000 u_1_1_4 - 0.483156 s_1_4  + 0.241578 s_1_8  + 0.241578 s_1_3  + 2000.000000 r_1_1_4 > -999.757203
s_2_1 + s_2_4 + 1000 r_2_1_4 >= 2
- s_2_1 - s_2_4 - 1000 r_2_1_4 >= -1001
t_2_1 - t_2_4 - 1000.000000 u_2_1_4 - 0.480505 s_2_4  + 0.240252 s_2_8  + 0.240252 s_2_3  + 2000.000000 r_2_1_4 > -996.235436
s_1_1 + s_1_5 + 1000 r_1_1_5 >= 2
- s_1_1 - s_1_5 - 1000 r_1_1_5 >= -1001
t_1_1 - t_1_5 - 1000.000000 u_1_1_5 - 0.483156 s_1_5  + 0.241578 s_1_7  + 0.241578 s_1_8  + 2000.000000 r_1_1_5 > -999.788319
s_2_1 + s_2_5 + 1000 r_2_1_5 >= 2
- s_2_1 - s_2_5 - 1000 r_2_1_5 >= -1001
t_2_1 - t_2_5 - 1000.000000 u_2_1_5 - 0.480505 s_2_5  + 0.240252 s_2_7  + 0.240252 s_2_8  + 2000.000000 r_2_1_5 > -996.873352
t_1_6 - t_1_1 - 1000.241578 s_1_1  + 0.241578 s_1_7  > -999.706800
t_1_6 - t_2_1 - 1000.240252 s_2_1  + 0.240252 s_2_7  > -995.972456
t_2_6 - t_1_1 - 1000.241578 s_1_1  + 0.241578 s_1_7  > -999.706800
t_2_6 - t_2_1 - 1000.240252 s_2_1  + 0.240252 s_2_7  > -995.972456
t_1_1 - t_1_7 - 1000.000000 s_1_7  > -999.384867
t_1_1 - t_2_7 - 1000.000000 s_2_7  > -989.224778
t_2_1 - t_1_7 - 1000.000000 s_1_7  > -999.384867
t_2_1 - t_2_7 - 1000.000000 s_2_7  > -989.224778
s_1_1 + s_1_8 + 1000 r_1_1_8 >= 2
- s_1_1 - s_1_8 - 1000 r_1_1_8 >= -1001
t_1_1 - t_1_8 - 1000.000000 u_1_1_8 - 0.000000 s_1_8  + 2000.000000 r_1_1_8 > -999.513622
s_2_1 + s_2_8 + 1000 r_2_1_8 >= 2
- s_2_1 - s_2_8 - 1000 r_2_1_8 >= -1001
t_2_1 - t_2_8 - 1000.000000 u_2_1_8 - 0.000000 s_2_8  + 2000.000000 r_2_1_8 > -997.255011
s_1_2 + s_1_1 + 1000 r_1_1_2 >= 2
- s_1_2 - s_1_1 - 1000 r_1_1_2 >= -1001
t_1_2 - t_1_1 + 1000.000000 u_1_1_2 - 0.241578 s_1_1  + 0.241578 s_1_7  + 2000.000000 r_1_1_2 > 0.293200
s_2_2 + s_2_1 + 1000 r_2_1_2 >= 2
- s_2_2 - s_2_1 - 1000 r_2_1_2 >= -1001
t_2_2 - t_2_1 + 1000.000000 u_2_1_2 - 0.240252 s_2_1  + 0.240252 s_2_7  + 2000.000000 r_2_1_2 > 4.027544
s_1_2 + s_1_3 + 1000 r_1_2_3 >= 2
- s_1_2 - s_1_3 - 1000 r_1_2_3 >= -1001
t_1_2 - t_1_3 - 1000.000000 u_1_2_3 - 0.241578 s_1_3  + 0.241578 s_1_8  + 2000.000000 r_1_2_3 > -999.546744
s_2_2 + s_2_3 + 1000 r_2_2_3 >= 2
- s_2_2 - s_2_3 - 1000 r_2_2_3 >= -1001
t_2_2 - t_2_3 - 1000.000000 u_2_2_3 - 0.240252 s_2_3  + 0.240252 s_2_8  + 2000.000000 r_2_2_3 > -994.309304
s_1_2 + s_1_4 + 1000 r_1_2_4 >= 2
- s_1_2 - s_1_4 - 1000 r_1_2_4 >= -1001
t_1_2 - t_1_4 - 1000.000000 u_1_2_4 - 0.483156 s_1_4  + 0.241578 s_1_8  + 0.241578 s_1_3  + 2000.000000 r_1_2_4 > -999.757203
s_2_2 + s_2_4 + 1000 r_2_2_4 >= 2
- s_2_2 - s_2_4 - 1000 r_2_2_4 >= -1001
t_2_2 - t_2_4 - 1000.000000 u_2_2_4 - 0.480505 s_2_4  + 0.240252 s_2_8  + 0.240252 s_2_3  + 2000.000000 r_2_2_4 > -996.235436
s_1_2 + s_1_5 + 1000 r_1_2_5 >= 2
- s_1_2 - s_1_5 - 1000 r_1_2_5 >= -1001
t_1_2 - t_1_5 - 1000.000000 u_1_2_5 - 0.483156 s_1_5  + 0.241578 s_1_7  + 0.241578 s_1_8  + 2000.000000 r_1_2_5 > -999.788319
s_2_2 + s_2_5 + 1000 r_2_2_5 >= 2
- s_2_2 - s_2_5 - 1000 r_2_2_5 >= -1001
t_2_2 - t_2_5 - 1000.000000 u_2_2_5 - 0.480505 s_2_5  + 0.240252 s_2_7  + 0.240252 s_2_8  + 2000.000000 r_2_2_5 > -996.873352
t_1_6 - t_1_2 - 1000.241578 s_1_2  + 0.241578 s_1_8  > -999.677778
t_1_6 - t_2_2 - 1000.240252 s_2_2  + 0.240252 s_2_8  > -995.807417
t_2_6 - t_1_2 - 1000.241578 s_1_2  + 0.241578 s_1_8  > -999.677778
t_2_6 - t_2_2 - 1000.240252 s_2_2  + 0.240252 s_2_8  > -995.807417
s_1_2 + s_1_7 + 1000 r_1_2_7 >= 2
- s_1_2 - s_1_7 - 1000 r_1_2_7 >= -1001
t_1_2 - t_1_7 - 1000.000000 u_1_2_7 - 0.000000 s_1_7  + 2000.000000 r_1_2_7 > -999.384867
s_2_2 + s_2_7 + 1000 r_2_2_7 >= 2
- s_2_2 - s_2_7 - 1000 r_2_2_7 >= -1001
t_2_2 - t_2_7 - 1000.000000 u_2_2_7 - 0.000000 s_2_7  + 2000.000000 r_2_2_7 > -989.224778
t_1_2 - t_1_8 - 1000.000000 s_1_8  > -999.513622
t_1_2 - t_2_8 - 1000.000000 s_2_8  > -997.255011
t_2_2 - t_1_8 - 1000.000000 s_1_8  > -999.513622
t_2_2 - t_2_8 - 1000.000000 s_2_8  > -997.255011
s_1_3 + s_1_1 + 1000 r_1_1_3 >= 2
- s_1_3 - s_1_1 - 1000 r_1_1_3 >= -1001
t_1_3 - t_1_1 + 1000.000000 u_1_1_3 - 0.241578 s_1_1  + 0.241578 s_1_7  + 2000.000000 r_1_1_3 > 0.293200
s_2_3 + s_2_1 + 1000 r_2_1_3 >= 2
- s_2_3 - s_2_1 - 1000 r_2_1_3 >= -1001
t_2_3 - t_2_1 + 1000.000000 u_2_1_3 - 0.240252 s_2_1  + 0.240252 s_2_7  + 2000.000000 r_2_1_3 > 4.027544
s_1_3 + s_1_2 + 1000 r_1_2_3 >= 2
- s_1_3 - s_1_2 - 1000 r_1_2_3 >= -1001
t_1_3 - t_1_2 + 1000.000000 u_1_2_3 - 0.241578 s_1_2  + 0.241578 s_1_8  + 2000.000000 r_1_2_3 > 0.322222
s_2_3 + s_2_2 + 1000 r_2_2_3 >= 2
- s_2_3 - s_2_2 - 1000 r_2_2_3 >= -1001
t_2_3 - t_2_2 + 1000.000000 u_2_2_3 - 0.240252 s_2_2  + 0.240252 s_2_8  + 2000.000000 r_2_2_3 > 4.192583
t_1_4 - t_1_3 - 1000.241578 s_1_3  + 0.241578 s_1_8  > -999.546744
t_1_4 - t_2_3 - 1000.240252 s_2_3  + 0.240252 s_2_8  > -994.309304
t_2_4 - t_1_3 - 1000.241578 s_1_3  + 0.241578 s_1_8  > -999.546744
t_2_4 - t_2_3 - 1000.240252 s_2_3  + 0.240252 s_2_8  > -994.309304
s_1_3 + s_1_5 + 1000 r_1_3_5 >= 2
- s_1_3 - s_1_5 - 1000 r_1_3_5 >= -1001
t_1_3 - t_1_5 - 1000.000000 u_1_3_5 - 0.483156 s_1_5  + 0.241578 s_1_7  + 0.241578 s_1_8  + 2000.000000 r_1_3_5 > -999.788319
s_2_3 + s_2_5 + 1000 r_2_3_5 >= 2
- s_2_3 - s_2_5 - 1000 r_2_3_5 >= -1001
t_2_3 - t_2_5 - 1000.000000 u_2_3_5 - 0.480505 s_2_5  + 0.240252 s_2_7  + 0.240252 s_2_8  + 2000.000000 r_2_3_5 > -996.873352
t_1_6 - t_1_3 - 1000.241578 s_1_3  + 0.241578 s_1_8  > -999.546744
t_1_6 - t_2_3 - 1000.240252 s_2_3  + 0.240252 s_2_8  > -994.309304
t_2_6 - t_1_3 - 1000.241578 s_1_3  + 0.241578 s_1_8  > -999.546744
t_2_6 - t_2_3 - 1000.240252 s_2_3  + 0.240252 s_2_8  > -994.309304
s_1_3 + s_1_7 + 1000 r_1_3_7 >= 2
- s_1_3 - s_1_7 - 1000 r_1_3_7 >= -1001
t_1_3 - t_1_7 - 1000.000000 u_1_3_7 - 0.000000 s_1_7  + 2000.000000 r_1_3_7 > -999.384867
s_2_3 + s_2_7 + 1000 r_2_3_7 >= 2
- s_2_3 - s_2_7 - 1000 r_2_3_7 >= -1001
t_2_3 - t_2_7 - 1000.000000 u_2_3_7 - 0.000000 s_2_7  + 2000.000000 r_2_3_7 > -989.224778
t_1_3 - t_1_8 - 1000.000000 s_1_8  > -999.513622
t_1_3 - t_2_8 - 1000.000000 s_2_8  > -997.255011
t_2_3 - t_1_8 - 1000.000000 s_1_8  > -999.513622
t_2_3 - t_2_8 - 1000.000000 s_2_8  > -997.255011
s_1_4 + s_1_1 + 1000 r_1_1_4 >= 2
- s_1_4 - s_1_1 - 1000 r_1_1_4 >= -1001
t_1_4 - t_1_1 + 1000.000000 u_1_1_4 - 0.241578 s_1_1  + 0.241578 s_1_7  + 2000.000000 r_1_1_4 > 0.293200
s_2_4 + s_2_1 + 1000 r_2_1_4 >= 2
- s_2_4 - s_2_1 - 1000 r_2_1_4 >= -1001
t_2_4 - t_2_1 + 1000.000000 u_2_1_4 - 0.240252 s_2_1  + 0.240252 s_2_7  + 2000.000000 r_2_1_4 > 4.027544
s_1_4 + s_1_2 + 1000 r_1_2_4 >= 2
- s_1_4 - s_1_2 - 1000 r_1_2_4 >= -1001
t_1_4 - t_1_2 + 1000.000000 u_1_2_4 - 0.241578 s_1_2  + 0.241578 s_1_8  + 2000.000000 r_1_2_4 > 0.322222
s_2_4 + s_2_2 + 1000 r_2_2_4 >= 2
- s_2_4 - s_2_2 - 1000 r_2_2_4 >= -1001
t_2_4 - t_2_2 + 1000.000000 u_2_2_4 - 0.240252 s_2_2  + 0.240252 s_2_8  + 2000.000000 r_2_2_4 > 4.192583
s_1_4 + s_1_5 + 1000 r_1_4_5 >= 2
- s_1_4 - s_1_5 - 1000 r_1_4_5 >= -1001
t_1_4 - t_1_5 - 1000.000000 u_1_4_5 - 0.483156 s_1_5  + 0.241578 s_1_7  + 0.241578 s_1_8  + 2000.000000 r_1_4_5 > -999.788319
s_2_4 + s_2_5 + 1000 r_2_4_5 >= 2
- s_2_4 - s_2_5 - 1000 r_2_4_5 >= -1001
t_2_4 - t_2_5 - 1000.000000 u_2_4_5 - 0.480505 s_2_5  + 0.240252 s_2_7  + 0.240252 s_2_8  + 2000.000000 r_2_4_5 > -996.873352
t_1_6 - t_1_4 - 1000.483156 s_1_4  + 0.241578 s_1_8  + 0.241578 s_1_3  > -999.757203
t_1_6 - t_2_4 - 1000.480505 s_2_4  + 0.240252 s_2_8  + 0.240252 s_2_3  > -996.235436
t_2_6 - t_1_4 - 1000.483156 s_1_4  + 0.241578 s_1_8  + 0.241578 s_1_3  > -999.757203
t_2_6 - t_2_4 - 1000.480505 s_2_4  + 0.240252 s_2_8  + 0.240252 s_2_3  > -996.235436
s_1_4 + s_1_7 + 1000 r_1_4_7 >= 2
- s_1_4 - s_1_7 - 1000 r_1_4_7 >= -1001
t_1_4 - t_1_7 - 1000.000000 u_1_4_7 - 0.000000 s_1_7  + 2000.000000 r_1_4_7 > -999.384867
s_2_4 + s_2_7 + 1000 r_2_4_7 >= 2
- s_2_4 - s_2_7 - 1000 r_2_4_7 >= -1001
t_2_4 - t_2_7 - 1000.000000 u_2_4_7 - 0.000000 s_2_7  + 2000.000000 r_2_4_7 > -989.224778
t_1_4 - t_1_8 - 1000.000000 s_1_8  > -999.513622
t_1_4 - t_2_8 - 1000.000000 s_2_8  > -997.255011
t_2_4 - t_1_8 - 1000.000000 s_1_8  > -999.513622
t_2_4 - t_2_8 - 1000.000000 s_2_8  > -997.255011
s_1_5 + s_1_1 + 1000 r_1_1_5 >= 2
- s_1_5 - s_1_1 - 1000 r_1_1_5 >= -1001
t_1_5 - t_1_1 + 1000.000000 u_1_1_5 - 0.241578 s_1_1  + 0.241578 s_1_7  + 2000.000000 r_1_1_5 > 0.293200
s_2_5 + s_2_1 + 1000 r_2_1_5 >= 2
- s_2_5 - s_2_1 - 1000 r_2_1_5 >= -1001
t_2_5 - t_2_1 + 1000.000000 u_2_1_5 - 0.240252 s_2_1  + 0.240252 s_2_7  + 2000.000000 r_2_1_5 > 4.027544
s_1_5 + s_1_2 + 1000 r_1_2_5 >= 2
- s_1_5 - s_1_2 - 1000 r_1_2_5 >= -1001
t_1_5 - t_1_2 + 1000.000000 u_1_2_5 - 0.241578 s_1_2  + 0.241578 s_1_8  + 2000.000000 r_1_2_5 > 0.322222
s_2_5 + s_2_2 + 1000 r_2_2_5 >= 2
- s_2_5 - s_2_2 - 1000 r_2_2_5 >= -1001
t_2_5 - t_2_2 + 1000.000000 u_2_2_5 - 0.240252 s_2_2  + 0.240252 s_2_8  + 2000.000000 r_2_2_5 > 4.192583
s_1_5 + s_1_3 + 1000 r_1_3_5 >= 2
- s_1_5 - s_1_3 - 1000 r_1_3_5 >= -1001
t_1_5 - t_1_3 + 1000.000000 u_1_3_5 - 0.241578 s_1_3  + 0.241578 s_1_8  + 2000.000000 r_1_3_5 > 0.453256
s_2_5 + s_2_3 + 1000 r_2_3_5 >= 2
- s_2_5 - s_2_3 - 1000 r_2_3_5 >= -1001
t_2_5 - t_2_3 + 1000.000000 u_2_3_5 - 0.240252 s_2_3  + 0.240252 s_2_8  + 2000.000000 r_2_3_5 > 5.690696
s_1_5 + s_1_4 + 1000 r_1_4_5 >= 2
- s_1_5 - s_1_4 - 1000 r_1_4_5 >= -1001
t_1_5 - t_1_4 + 1000.000000 u_1_4_5 - 0.483156 s_1_4  + 0.241578 s_1_8  + 0.241578 s_1_3  + 2000.000000 r_1_4_5 > 0.242797
s_2_5 + s_2_4 + 1000 r_2_4_5 >= 2
- s_2_5 - s_2_4 - 1000 r_2_4_5 >= -1001
t_2_5 - t_2_4 + 1000.000000 u_2_4_5 - 0.480505 s_2_4  + 0.240252 s_2_8  + 0.240252 s_2_3  + 2000.000000 r_2_4_5 > 3.764564
t_1_6 - t_1_5 - 1000.483156 s_1_5  + 0.241578 s_1_7  + 0.241578 s_1_8  > -999.788319
t_1_6 - t_2_5 - 1000.480505 s_2_5  + 0.240252 s_2_7  + 0.240252 s_2_8  > -996.873352
t_2_6 - t_1_5 - 1000.483156 s_1_5  + 0.241578 s_1_7  + 0.241578 s_1_8  > -999.788319
t_2_6 - t_2_5 - 1000.480505 s_2_5  + 0.240252 s_2_7  + 0.240252 s_2_8  > -996.873352
t_1_5 - t_1_7 - 1000.000000 s_1_7  > -999.384867
t_1_5 - t_2_7 - 1000.000000 s_2_7  > -989.224778
t_2_5 - t_1_7 - 1000.000000 s_1_7  > -999.384867
t_2_5 - t_2_7 - 1000.000000 s_2_7  > -989.224778
t_1_5 - t_1_8 - 1000.000000 s_1_8  > -999.513622
t_1_5 - t_2_8 - 1000.000000 s_2_8  > -997.255011
t_2_5 - t_1_8 - 1000.000000 s_1_8  > -999.513622
t_2_5 - t_2_8 - 1000.000000 s_2_8  > -997.255011
s_1_7 + s_1_2 + 1000 r_1_2_7 >= 2
- s_1_7 - s_1_2 - 1000 r_1_2_7 >= -1001
t_1_7 - t_1_2 + 1000.000000 u_1_2_7 - 0.241578 s_1_2  + 0.241578 s_1_8  + 2000.000000 r_1_2_7 > 0.322222
s_2_7 + s_2_2 + 1000 r_2_2_7 >= 2
- s_2_7 - s_2_2 - 1000 r_2_2_7 >= -1001
t_2_7 - t_2_2 + 1000.000000 u_2_2_7 - 0.240252 s_2_2  + 0.240252 s_2_8  + 2000.000000 r_2_2_7 > 4.192583
s_1_7 + s_1_3 + 1000 r_1_3_7 >= 2
- s_1_7 - s_1_3 - 1000 r_1_3_7 >= -1001
t_1_7 - t_1_3 + 1000.000000 u_1_3_7 - 0.241578 s_1_3  + 0.241578 s_1_8  + 2000.000000 r_1_3_7 > 0.453256
s_2_7 + s_2_3 + 1000 r_2_3_7 >= 2
- s_2_7 - s_2_3 - 1000 r_2_3_7 >= -1001
t_2_7 - t_2_3 + 1000.000000 u_2_3_7 - 0.240252 s_2_3  + 0.240252 s_2_8  + 2000.000000 r_2_3_7 > 5.690696
s_1_7 + s_1_4 + 1000 r_1_4_7 >= 2
- s_1_7 - s_1_4 - 1000 r_1_4_7 >= -1001
t_1_7 - t_1_4 + 1000.000000 u_1_4_7 - 0.483156 s_1_4  + 0.241578 s_1_8  + 0.241578 s_1_3  + 2000.000000 r_1_4_7 > 0.242797
s_2_7 + s_2_4 + 1000 r_2_4_7 >= 2
- s_2_7 - s_2_4 - 1000 r_2_4_7 >= -1001
t_2_7 - t_2_4 + 1000.000000 u_2_4_7 - 0.480505 s_2_4  + 0.240252 s_2_8  + 0.240252 s_2_3  + 2000.000000 r_2_4_7 > 3.764564
s_1_7 + s_1_8 + 1000 r_1_7_8 >= 2
- s_1_7 - s_1_8 - 1000 r_1_7_8 >= -1001
t_1_7 - t_1_8 - 1000.000000 u_1_7_8 - 0.000000 s_1_8  + 2000.000000 r_1_7_8 > -999.513622
s_2_7 + s_2_8 + 1000 r_2_7_8 >= 2
- s_2_7 - s_2_8 - 1000 r_2_7_8 >= -1001
t_2_7 - t_2_8 - 1000.000000 u_2_7_8 - 0.000000 s_2_8  + 2000.000000 r_2_7_8 > -997.255011
s_1_8 + s_1_1 + 1000 r_1_1_8 >= 2
- s_1_8 - s_1_1 - 1000 r_1_1_8 >= -1001
t_1_8 - t_1_1 + 1000.000000 u_1_1_8 - 0.241578 s_1_1  + 0.241578 s_1_7  + 2000.000000 r_1_1_8 > 0.293200
s_2_8 + s_2_1 + 1000 r_2_1_8 >= 2
- s_2_8 - s_2_1 - 1000 r_2_1_8 >= -1001
t_2_8 - t_2_1 + 1000.000000 u_2_1_8 - 0.240252 s_2_1  + 0.240252 s_2_7  + 2000.000000 r_2_1_8 > 4.027544
s_1_8 + s_1_7 + 1000 r_1_7_8 >= 2
- s_1_8 - s_1_7 - 1000 r_1_7_8 >= -1001
t_1_8 - t_1_7 + 1000.000000 u_1_7_8 - 0.000000 s_1_7  + 2000.000000 r_1_7_8 > 0.615133
s_2_8 + s_2_7 + 1000 r_2_7_8 >= 2
- s_2_8 - s_2_7 - 1000 r_2_7_8 >= -1001
t_2_8 - t_2_7 + 1000.000000 u_2_7_8 - 0.000000 s_2_7  + 2000.000000 r_2_7_8 > 10.775222
Binary
s_1_1
s_2_1
s_1_2
s_2_2
s_1_3
s_2_3
s_1_4
s_2_4
s_1_5
s_2_5
s_1_6
s_2_6
s_1_7
s_2_7
s_1_8
s_2_8
u_1_1_2
r_1_1_2
u_2_1_2
r_2_1_2
u_1_1_3
r_1_1_3
u_2_1_3
r_2_1_3
u_1_1_4
r_1_1_4
u_2_1_4
r_2_1_4
u_1_1_5
r_1_1_5
u_2_1_5
r_2_1_5
u_1_1_8
r_1_1_8
u_2_1_8
r_2_1_8
u_1_2_3
r_1_2_3
u_2_2_3
r_2_2_3
u_1_2_4
r_1_2_4
u_2_2_4
r_2_2_4
u_1_2_5
r_1_2_5
u_2_2_5
r_2_2_5
u_1_2_7
r_1_2_7
u_2_2_7
r_2_2_7
u_1_3_5
r_1_3_5
u_2_3_5
r_2_3_5
u_1_3_7
r_1_3_7
u_2_3_7
r_2_3_7
u_1_4_5
r_1_4_5
u_2_4_5
r_2_4_5
u_1_4_7
r_1_4_7
u_2_4_7
r_2_4_7
u_1_7_8
r_1_7_8
u_2_7_8
r_2_7_8

End
